DIMENSION: 20
EDGE_WEIGHT_TYPE: EXPLICIT
EDGE_WEIGHT_FORMAT: FULL_MATRIX
EDGE_WEIGHT_SECTION:
32767 32767 32767 32767 32767 32767 32767 32767 32767 97 8 32767 32767 32767 32767 32767 32767 83 32767 32767 
32767 32767 32767 57 32767 32767 32767 32767 32767 32767 22 32767 30 97 80 32767 32767 32767 32767 10 
32767 32767 32767 19 32767 54 32767 32767 32767 32767 32767 61 32767 32767 32767 32767 32767 93 32767 32767 
32767 57 19 32767 32767 32767 32767 91 32767 32767 32767 32767 28 46 32767 18 52 32767 32767 32767 
32767 32767 32767 32767 32767 32767 65 32767 50 32767 32767 45 32767 32767 57 11 32767 26 32767 32767 
32767 32767 54 32767 32767 32767 32767 9 72 32767 49 32767 39 32767 32767 32767 32767 32767 32767 32767 
32767 32767 32767 32767 65 32767 32767 14 32767 32767 47 60 32767 37 32767 32767 32767 32767 32767 32767 
32767 32767 32767 91 32767 9 14 32767 25 32767 32767 53 48 32767 32767 32767 32767 32767 32767 32767 
32767 32767 32767 32767 50 72 32767 25 32767 32767 32767 85 32767 32767 32767 32767 32767 19 85 32767 
97 32767 32767 32767 32767 32767 32767 32767 32767 32767 32767 20 32767 32 32767 32767 32767 32767 32767 9 
8 22 32767 32767 32767 49 47 32767 32767 32767 32767 32767 32767 32767 98 45 32767 32767 32767 32767 
32767 32767 61 32767 45 32767 60 53 85 20 32767 32767 32767 66 32767 32767 32767 31 32767 32767 
32767 30 32767 28 32767 39 32767 48 32767 32767 32767 32767 32767 32767 32767 32767 91 32767 32767 32767 
32767 97 32767 46 32767 32767 37 32767 32767 32 32767 66 32767 32767 90 93 32767 43 1 32767 
32767 80 32767 32767 57 32767 32767 32767 32767 32767 98 32767 32767 90 32767 32767 32767 32767 37 32767 
32767 32767 32767 18 11 32767 32767 32767 32767 32767 45 32767 32767 93 32767 32767 32767 25 32767 32767 
32767 32767 32767 52 32767 32767 32767 32767 32767 32767 32767 32767 91 32767 32767 32767 32767 32767 32767 32767 
83 32767 93 32767 26 32767 32767 32767 19 32767 32767 31 32767 43 32767 25 32767 32767 32767 32767 
32767 32767 32767 32767 32767 32767 32767 32767 85 32767 32767 32767 32767 1 37 32767 32767 32767 32767 46 
32767 10 32767 32767 32767 32767 32767 32767 32767 9 32767 32767 32767 32767 32767 32767 32767 32767 46 32767 
EOF